StringID   Type       x          y          demand     ReadyTime  DueDate    ServiceTime
D0         d              88.417    41.487      0.000      0.000     23.983      0.000
S0         f              88.417    41.487      0.000      0.000     23.983      0.000
S1         f              62.950    15.890      0.000      0.000     23.983      0.000
S2         f              91.870    74.240      0.000      0.000     23.983      0.000
C0         c              44.127    41.161      0.007     13.615     14.163      0.033
C1         c             104.167    75.099      0.033     14.861     15.519      0.167
C2         c              46.927     1.713      0.002     19.315     19.757      0.017
C3         c              44.725    26.780      0.006     18.588     19.218      0.167
C4         c              33.845    28.306      0.005     13.222     13.748      0.017

Q Vehicle fuel tank capacity /124.6800/
C Vehicle load capacity /1.0100/
r fuel consumption rate /0.4447/
g inverse refueling rate /0.0078/
v average Velocity /36.7400/
gv charging speed /128.3000/

--------------------
instance_id /479/
number of clusters /6/
working_startTime (hour) /8.00/
working_endTime (hour) /20.55/
instance_endTime (hour) /23.98/
service_time_type /random/
demand_type /20_80/
instance_type /RC/
instance x range /[0.0, 100.0]/
instance y range /[0.0, 100.0]/
cs_time_to_depot (hour)/[0.9827930779905043,0.8964211781374879]/
